{gpu}
units           real

atom_style      full
pair_style      {pairstyle}
bond_style      harmonic
angle_style     harmonic

{molecules}

runsteps        {steps}
